Ordonnancement/plne/source/petit_instance/4job/4job_12.dat
data;
param nombreJob := 4;
param nombreRessource := 3;
param duree := 1 2 2 7 3 7 4 10;
param capaciteRessource := 1 4 2 13 3 13;
param besoinRessource : 1 2 3 :=
                    1   1 3 10
                    2   2 8 10
                    3   2 7 1
                    4   4 1 10;
end;

