Ordonnancement/plne/source/glpk_resultat/4job/4job_12.sol
Problem:    glpsolRcpsp
Rows:       283
Columns:    105 (104 integer, 104 binary)
Non-zeros:  2017
Status:     INTEGER OPTIMAL
Objective:  obj = 24 (MINimum)

   No.   Row name        Activity     Lower bound   Upper bound
------ ------------    ------------- ------------- -------------
     1 periode[1]                  2             2             = 
     2 periode[2]                  7             7             = 
     3 periode[3]                  7             7             = 
     4 periode[4]                 10            10             = 
     5 complet[1,1]                2                           2 
     6 complet[1,2]                2                           2 
     7 complet[1,3]                2                           2 
     8 complet[1,4]                2                           2 
     9 complet[1,5]                2                           2 
    10 complet[1,6]                2                           2 
    11 complet[1,7]                2                           2 
    12 complet[1,8]                2                           2 
    13 complet[1,9]                2                           2 
    14 complet[1,10]
                                   2                           2 
    15 complet[1,11]
                                   2                           2 
    16 complet[1,12]
                                   2                           2 
    17 complet[1,13]
                                   2                           2 
    18 complet[1,14]
                                   2                           2 
    19 complet[1,15]
                                   2                           2 
    20 complet[1,16]
                                   2                           2 
    21 complet[1,17]
                                  -1                           2 
    22 complet[1,18]
                                   0                           2 
    23 complet[1,19]
                                   2                           2 
    24 complet[1,20]
                                   0                           2 
    25 complet[1,21]
                                   0                           2 
    26 complet[1,22]
                                   0                           2 
    27 complet[1,23]
                                   0                           2 
    28 complet[1,24]
                                   0                           2 
    29 complet[2,1]                5                           7 
    30 complet[2,2]                4                           7 
    31 complet[2,3]                3                           7 
    32 complet[2,4]                2                           7 
    33 complet[2,5]                1                           7 
    34 complet[2,6]                0                           7 
    35 complet[2,7]                7                           7 
    36 complet[2,8]                0                           7 
    37 complet[2,9]                0                           7 
    38 complet[2,10]
                                   0                           7 
    39 complet[2,11]
                                   0                           7 
    40 complet[2,12]
                                   0                           7 
    41 complet[2,13]
                                   0                           7 
    42 complet[2,14]
                                   0                           7 
    43 complet[2,15]
                                   0                           7 
    44 complet[2,16]
                                   0                           7 
    45 complet[2,17]
                                   0                           7 
    46 complet[2,18]
                                   0                           7 
    47 complet[2,19]
                                   0                           7 
    48 complet[2,20]
                                   0                           7 
    49 complet[2,21]
                                   0                           7 
    50 complet[2,22]
                                   0                           7 
    51 complet[2,23]
                                   0                           7 
    52 complet[2,24]
                                   0                           7 
    53 complet[3,1]                7                           7 
    54 complet[3,2]                7                           7 
    55 complet[3,3]                7                           7 
    56 complet[3,4]                7                           7 
    57 complet[3,5]                7                           7 
    58 complet[3,6]                7                           7 
    59 complet[3,7]                7                           7 
    60 complet[3,8]                7                           7 
    61 complet[3,9]                7                           7 
    62 complet[3,10]
                                   7                           7 
    63 complet[3,11]
                                   7                           7 
    64 complet[3,12]
                                   7                           7 
    65 complet[3,13]
                                   7                           7 
    66 complet[3,14]
                                   7                           7 
    67 complet[3,15]
                                   7                           7 
    68 complet[3,16]
                                   7                           7 
    69 complet[3,17]
                                  -1                           7 
    70 complet[3,18]
                                   5                           7 
    71 complet[3,19]
                                   4                           7 
    72 complet[3,20]
                                   3                           7 
    73 complet[3,21]
                                   2                           7 
    74 complet[3,22]
                                   1                           7 
    75 complet[3,23]
                                   0                           7 
    76 complet[3,24]
                                   7                           7 
    77 complet[4,1]               10                          10 
    78 complet[4,2]               10                          10 
    79 complet[4,3]               10                          10 
    80 complet[4,4]               10                          10 
    81 complet[4,5]               10                          10 
    82 complet[4,6]               10                          10 
    83 complet[4,7]               -1                          10 
    84 complet[4,8]                8                          10 
    85 complet[4,9]                7                          10 
    86 complet[4,10]
                                   6                          10 
    87 complet[4,11]
                                   5                          10 
    88 complet[4,12]
                                   4                          10 
    89 complet[4,13]
                                   3                          10 
    90 complet[4,14]
                                   2                          10 
    91 complet[4,15]
                                   1                          10 
    92 complet[4,16]
                                   0                          10 
    93 complet[4,17]
                                  10                          10 
    94 complet[4,18]
                                   0                          10 
    95 complet[4,19]
                                   0                          10 
    96 complet[4,20]
                                   0                          10 
    97 complet[4,21]
                                   0                          10 
    98 complet[4,22]
                                   0                          10 
    99 complet[4,23]
                                   0                          10 
   100 complet[4,24]
                                   0                          10 
   101 cmax[1,1]                  24            -0               
   102 cmax[1,2]                  24            -0               
   103 cmax[1,3]                  24            -0               
   104 cmax[1,4]                  24            -0               
   105 cmax[1,5]                  24            -0               
   106 cmax[1,6]                  24            -0               
   107 cmax[1,7]                  24            -0               
   108 cmax[1,8]                  24            -0               
   109 cmax[1,9]                  24            -0               
   110 cmax[1,10]                 24            -0               
   111 cmax[1,11]                 24            -0               
   112 cmax[1,12]                 24            -0               
   113 cmax[1,13]                 24            -0               
   114 cmax[1,14]                 24            -0               
   115 cmax[1,15]                 24            -0               
   116 cmax[1,16]                 24            -0               
   117 cmax[1,17]                 24            -0               
   118 cmax[1,18]                  6            -0               
   119 cmax[1,19]                  5            -0               
   120 cmax[1,20]                 24            -0               
   121 cmax[1,21]                 24            -0               
   122 cmax[1,22]                 24            -0               
   123 cmax[1,23]                 24            -0               
   124 cmax[1,24]                 24            -0               
   125 cmax[1,25]                 24            -0               
   126 cmax[1,26]                 24            -0               
   127 cmax[2,1]                  23            -0               
   128 cmax[2,2]                  22            -0               
   129 cmax[2,3]                  21            -0               
   130 cmax[2,4]                  20            -0               
   131 cmax[2,5]                  19            -0               
   132 cmax[2,6]                  18            -0               
   133 cmax[2,7]                  17            -0               
   134 cmax[2,8]                  24            -0               
   135 cmax[2,9]                  24            -0               
   136 cmax[2,10]                 24            -0               
   137 cmax[2,11]                 24            -0               
   138 cmax[2,12]                 24            -0               
   139 cmax[2,13]                 24            -0               
   140 cmax[2,14]                 24            -0               
   141 cmax[2,15]                 24            -0               
   142 cmax[2,16]                 24            -0               
   143 cmax[2,17]                 24            -0               
   144 cmax[2,18]                 24            -0               
   145 cmax[2,19]                 24            -0               
   146 cmax[2,20]                 24            -0               
   147 cmax[2,21]                 24            -0               
   148 cmax[2,22]                 24            -0               
   149 cmax[2,23]                 24            -0               
   150 cmax[2,24]                 24            -0               
   151 cmax[2,25]                 24            -0               
   152 cmax[2,26]                 24            -0               
   153 cmax[3,1]                  24            -0               
   154 cmax[3,2]                  24            -0               
   155 cmax[3,3]                  24            -0               
   156 cmax[3,4]                  24            -0               
   157 cmax[3,5]                  24            -0               
   158 cmax[3,6]                  24            -0               
   159 cmax[3,7]                  24            -0               
   160 cmax[3,8]                  24            -0               
   161 cmax[3,9]                  24            -0               
   162 cmax[3,10]                 24            -0               
   163 cmax[3,11]                 24            -0               
   164 cmax[3,12]                 24            -0               
   165 cmax[3,13]                 24            -0               
   166 cmax[3,14]                 24            -0               
   167 cmax[3,15]                 24            -0               
   168 cmax[3,16]                 24            -0               
   169 cmax[3,17]                 24            -0               
   170 cmax[3,18]                  6            -0               
   171 cmax[3,19]                  5            -0               
   172 cmax[3,20]                  4            -0               
   173 cmax[3,21]                  3            -0               
   174 cmax[3,22]                  2            -0               
   175 cmax[3,23]                  1            -0               
   176 cmax[3,24]                  0            -0               
   177 cmax[3,25]                 24            -0               
   178 cmax[3,26]                 24            -0               
   179 cmax[4,1]                  24            -0               
   180 cmax[4,2]                  24            -0               
   181 cmax[4,3]                  24            -0               
   182 cmax[4,4]                  24            -0               
   183 cmax[4,5]                  24            -0               
   184 cmax[4,6]                  24            -0               
   185 cmax[4,7]                  24            -0               
   186 cmax[4,8]                  16            -0               
   187 cmax[4,9]                  15            -0               
   188 cmax[4,10]                 14            -0               
   189 cmax[4,11]                 13            -0               
   190 cmax[4,12]                 12            -0               
   191 cmax[4,13]                 11            -0               
   192 cmax[4,14]                 10            -0               
   193 cmax[4,15]                  9            -0               
   194 cmax[4,16]                  8            -0               
   195 cmax[4,17]                  7            -0               
   196 cmax[4,18]                 24            -0               
   197 cmax[4,19]                 24            -0               
   198 cmax[4,20]                 24            -0               
   199 cmax[4,21]                 24            -0               
   200 cmax[4,22]                 24            -0               
   201 cmax[4,23]                 24            -0               
   202 cmax[4,24]                 24            -0               
   203 cmax[4,25]                 24            -0               
   204 cmax[4,26]                 24            -0               
   205 ressource[1,1]
                                   2                           4 
   206 ressource[1,2]
                                   2                           4 
   207 ressource[1,3]
                                   2                           4 
   208 ressource[1,4]
                                   2                           4 
   209 ressource[1,5]
                                   2                           4 
   210 ressource[1,6]
                                   2                           4 
   211 ressource[1,7]
                                   2                           4 
   212 ressource[1,8]
                                   4                           4 
   213 ressource[1,9]
                                   4                           4 
   214 ressource[1,10]
                                   4                           4 
   215 ressource[1,11]
                                   4                           4 
   216 ressource[1,12]
                                   4                           4 
   217 ressource[1,13]
                                   4                           4 
   218 ressource[1,14]
                                   4                           4 
   219 ressource[1,15]
                                   4                           4 
   220 ressource[1,16]
                                   4                           4 
   221 ressource[1,17]
                                   4                           4 
   222 ressource[1,18]
                                   3                           4 
   223 ressource[1,19]
                                   3                           4 
   224 ressource[1,20]
                                   2                           4 
   225 ressource[1,21]
                                   2                           4 
   226 ressource[1,22]
                                   2                           4 
   227 ressource[1,23]
                                   2                           4 
   228 ressource[1,24]
                                   2                           4 
   229 ressource[1,25]
                                   0                           4 
   230 ressource[1,26]
                                   0                           4 
   231 ressource[2,1]
                                   8                          13 
   232 ressource[2,2]
                                   8                          13 
   233 ressource[2,3]
                                   8                          13 
   234 ressource[2,4]
                                   8                          13 
   235 ressource[2,5]
                                   8                          13 
   236 ressource[2,6]
                                   8                          13 
   237 ressource[2,7]
                                   8                          13 
   238 ressource[2,8]
                                   1                          13 
   239 ressource[2,9]
                                   1                          13 
   240 ressource[2,10]
                                   1                          13 
   241 ressource[2,11]
                                   1                          13 
   242 ressource[2,12]
                                   1                          13 
   243 ressource[2,13]
                                   1                          13 
   244 ressource[2,14]
                                   1                          13 
   245 ressource[2,15]
                                   1                          13 
   246 ressource[2,16]
                                   1                          13 
   247 ressource[2,17]
                                   1                          13 
   248 ressource[2,18]
                                  10                          13 
   249 ressource[2,19]
                                  10                          13 
   250 ressource[2,20]
                                   7                          13 
   251 ressource[2,21]
                                   7                          13 
   252 ressource[2,22]
                                   7                          13 
   253 ressource[2,23]
                                   7                          13 
   254 ressource[2,24]
                                   7                          13 
   255 ressource[2,25]
                                   0                          13 
   256 ressource[2,26]
                                   0                          13 
   257 ressource[3,1]
                                  10                          13 
   258 ressource[3,2]
                                  10                          13 
   259 ressource[3,3]
                                  10                          13 
   260 ressource[3,4]
                                  10                          13 
   261 ressource[3,5]
                                  10                          13 
   262 ressource[3,6]
                                  10                          13 
   263 ressource[3,7]
                                  10                          13 
   264 ressource[3,8]
                                  10                          13 
   265 ressource[3,9]
                                  10                          13 
   266 ressource[3,10]
                                  10                          13 
   267 ressource[3,11]
                                  10                          13 
   268 ressource[3,12]
                                  10                          13 
   269 ressource[3,13]
                                  10                          13 
   270 ressource[3,14]
                                  10                          13 
   271 ressource[3,15]
                                  10                          13 
   272 ressource[3,16]
                                  10                          13 
   273 ressource[3,17]
                                  10                          13 
   274 ressource[3,18]
                                  11                          13 
   275 ressource[3,19]
                                  11                          13 
   276 ressource[3,20]
                                   1                          13 
   277 ressource[3,21]
                                   1                          13 
   278 ressource[3,22]
                                   1                          13 
   279 ressource[3,23]
                                   1                          13 
   280 ressource[3,24]
                                   1                          13 
   281 ressource[3,25]
                                   0                          13 
   282 ressource[3,26]
                                   0                          13 
   283 obj                        24                             

   No. Column name       Activity     Lower bound   Upper bound
------ ------------    ------------- ------------- -------------
     1 x[1,1]       *              0             0             1 
     2 x[1,2]       *              0             0             1 
     3 x[1,3]       *              0             0             1 
     4 x[1,4]       *              0             0             1 
     5 x[1,5]       *              0             0             1 
     6 x[1,6]       *              0             0             1 
     7 x[1,7]       *              0             0             1 
     8 x[1,8]       *              0             0             1 
     9 x[1,9]       *              0             0             1 
    10 x[1,10]      *              0             0             1 
    11 x[1,11]      *              0             0             1 
    12 x[1,12]      *              0             0             1 
    13 x[1,13]      *              0             0             1 
    14 x[1,14]      *              0             0             1 
    15 x[1,15]      *              0             0             1 
    16 x[1,16]      *              0             0             1 
    17 x[1,17]      *              0             0             1 
    18 x[1,18]      *              1             0             1 
    19 x[1,19]      *              1             0             1 
    20 x[1,20]      *              0             0             1 
    21 x[1,21]      *              0             0             1 
    22 x[1,22]      *              0             0             1 
    23 x[1,23]      *              0             0             1 
    24 x[1,24]      *              0             0             1 
    25 x[1,25]      *              0             0             1 
    26 x[1,26]      *              0             0             1 
    27 x[2,1]       *              1             0             1 
    28 x[2,2]       *              1             0             1 
    29 x[2,3]       *              1             0             1 
    30 x[2,4]       *              1             0             1 
    31 x[2,5]       *              1             0             1 
    32 x[2,6]       *              1             0             1 
    33 x[2,7]       *              1             0             1 
    34 x[2,8]       *              0             0             1 
    35 x[2,9]       *              0             0             1 
    36 x[2,10]      *              0             0             1 
    37 x[2,11]      *              0             0             1 
    38 x[2,12]      *              0             0             1 
    39 x[2,13]      *              0             0             1 
    40 x[2,14]      *              0             0             1 
    41 x[2,15]      *              0             0             1 
    42 x[2,16]      *              0             0             1 
    43 x[2,17]      *              0             0             1 
    44 x[2,18]      *              0             0             1 
    45 x[2,19]      *              0             0             1 
    46 x[2,20]      *              0             0             1 
    47 x[2,21]      *              0             0             1 
    48 x[2,22]      *              0             0             1 
    49 x[2,23]      *              0             0             1 
    50 x[2,24]      *              0             0             1 
    51 x[2,25]      *              0             0             1 
    52 x[2,26]      *              0             0             1 
    53 x[3,1]       *              0             0             1 
    54 x[3,2]       *              0             0             1 
    55 x[3,3]       *              0             0             1 
    56 x[3,4]       *              0             0             1 
    57 x[3,5]       *              0             0             1 
    58 x[3,6]       *              0             0             1 
    59 x[3,7]       *              0             0             1 
    60 x[3,8]       *              0             0             1 
    61 x[3,9]       *              0             0             1 
    62 x[3,10]      *              0             0             1 
    63 x[3,11]      *              0             0             1 
    64 x[3,12]      *              0             0             1 
    65 x[3,13]      *              0             0             1 
    66 x[3,14]      *              0             0             1 
    67 x[3,15]      *              0             0             1 
    68 x[3,16]      *              0             0             1 
    69 x[3,17]      *              0             0             1 
    70 x[3,18]      *              1             0             1 
    71 x[3,19]      *              1             0             1 
    72 x[3,20]      *              1             0             1 
    73 x[3,21]      *              1             0             1 
    74 x[3,22]      *              1             0             1 
    75 x[3,23]      *              1             0             1 
    76 x[3,24]      *              1             0             1 
    77 x[3,25]      *              0             0             1 
    78 x[3,26]      *              0             0             1 
    79 x[4,1]       *              0             0             1 
    80 x[4,2]       *              0             0             1 
    81 x[4,3]       *              0             0             1 
    82 x[4,4]       *              0             0             1 
    83 x[4,5]       *              0             0             1 
    84 x[4,6]       *              0             0             1 
    85 x[4,7]       *              0             0             1 
    86 x[4,8]       *              1             0             1 
    87 x[4,9]       *              1             0             1 
    88 x[4,10]      *              1             0             1 
    89 x[4,11]      *              1             0             1 
    90 x[4,12]      *              1             0             1 
    91 x[4,13]      *              1             0             1 
    92 x[4,14]      *              1             0             1 
    93 x[4,15]      *              1             0             1 
    94 x[4,16]      *              1             0             1 
    95 x[4,17]      *              1             0             1 
    96 x[4,18]      *              0             0             1 
    97 x[4,19]      *              0             0             1 
    98 x[4,20]      *              0             0             1 
    99 x[4,21]      *              0             0             1 
   100 x[4,22]      *              0             0             1 
   101 x[4,23]      *              0             0             1 
   102 x[4,24]      *              0             0             1 
   103 x[4,25]      *              0             0             1 
   104 x[4,26]      *              0             0             1 
   105 z                          24                             

Integer feasibility conditions:

KKT.PE: max.abs.err = 0.00e+00 on row 0
        max.rel.err = 0.00e+00 on row 0
        High quality

KKT.PB: max.abs.err = 0.00e+00 on row 0
        max.rel.err = 0.00e+00 on row 0
        High quality

End of output
